GAMMA         0    0    0   26  2.0-8.00 8.00    k-list generated by XCrySDen
              1    0    0   26  2.0
              2    0    0   26  2.0
              3    0    0   26  2.0
              4    0    0   26  2.0
              5    0    0   26  2.0
              6    0    0   26  2.0
              7    0    0   26  2.0
              8    0    0   26  2.0
              9    0    0   26  2.0
             10    0    0   26  2.0
             11    0    0   26  2.0
             12    0    0   26  2.0
X            13    0    0   26  2.0
             13   -1    0   26  2.0
             13   -2    0   26  2.0
             13   -3    0   26  2.0
             13   -4    0   26  2.0
             13   -5    0   26  2.0
             13   -6    0   26  2.0
             13   -7    0   26  2.0
             13   -8    0   26  2.0
             13   -9    0   26  2.0
             13  -10    0   26  2.0
             13  -11    0   26  2.0
             13  -12    0   26  2.0
M            13  -13    0   26  2.0
             13  -13    1   26  2.0
             13  -13    2   26  2.0
             13  -13    3   26  2.0
             13  -13    4   26  2.0
             13  -13    5   26  2.0
             13  -13    6   26  2.0
             13  -13    7   26  2.0
             13  -13    8   26  2.0
             13  -13    9   26  2.0
             13  -13   10   26  2.0
             13  -13   11   26  2.0
             13  -13   12   26  2.0
R            22  -22   22   44  2.0
             21  -21   21   44  2.0
             20  -20   20   44  2.0
             19  -19   19   44  2.0
             18  -18   18   44  2.0
             17  -17   17   44  2.0
             16  -16   16   44  2.0
             15  -15   15   44  2.0
             14  -14   14   44  2.0
             13  -13   13   44  2.0
             12  -12   12   44  2.0
             11  -11   11   44  2.0
             10  -10   10   44  2.0
              9   -9    9   44  2.0
              8   -8    8   44  2.0
              7   -7    7   44  2.0
              6   -6    6   44  2.0
              5   -5    5   44  2.0
              4   -4    4   44  2.0
              3   -3    3   44  2.0
              2   -2    2   44  2.0
              1   -1    1   44  2.0
GAMMA         0    0    0   44  2.0
